(declare-fun var0 () String)
(declare-fun var1 () String)
(declare-fun var2 () String)
(declare-fun var3 () String)
(declare-fun var4 () String)
(declare-fun var5 () String)
(declare-fun var6 () String)
(declare-fun var7 () String)
(declare-fun var8 () String)
(declare-fun var9 () String)
(declare-fun var10 () String)
(declare-fun var11 () String)
(declare-fun var12 () String)
(declare-fun var13 () String)
(declare-fun var14 () String)
(declare-fun var15 () String)
(declare-fun var16 () String)
(declare-fun var17 () String)
(declare-fun var18 () String)
(declare-fun var19 () String)
(declare-fun var20 () String)
(declare-fun var21 () String)
(declare-fun var22 () String)
(declare-fun var23 () String)
(declare-fun var24 () String)
(declare-fun var25 () String)
(declare-fun var26 () String)
(declare-fun var27 () String)
(declare-fun var28 () String)
(declare-fun var29 () String)
(declare-fun var30 () String)
(declare-fun var31 () String)
(declare-fun var32 () String)
(declare-fun var33 () String)
(declare-fun var34 () String)
(declare-fun var35 () String)
(declare-fun var36 () String)
(declare-fun var37 () String)
(declare-fun var38 () String)
(declare-fun var39 () String)
(declare-fun var40 () String)
(declare-fun var41 () String)
(declare-fun var42 () String)
(declare-fun var43 () String)
(declare-fun var44 () String)
(declare-fun var45 () String)
(declare-fun var46 () String)
(declare-fun var47 () String)
(declare-fun var48 () String)
(declare-fun var49 () String)
(declare-fun var50 () String)
(declare-fun var51 () String)
(declare-fun var52 () String)
(declare-fun var53 () String)
(declare-fun var54 () String)
(declare-fun var55 () String)
(declare-fun var56 () String)
(declare-fun var57 () String)
(declare-fun var58 () String)
(declare-fun var59 () String)
(declare-fun var60 () String)
(assert (= var0 (str.++ var1 var2)))
(assert (= var2 (str.++ var3 var4)))
(assert (= var4 (str.++ var5 var6)))
(assert (= var6 (str.++ var7 var8)))
(assert (= var8 (str.++ var9 var10)))
(assert (= var10 (str.++ var11 var12)))
(assert (= var12 (str.++ var13 var14)))
(assert (= var14 (str.++ var15 var16)))
(assert (= var16 (str.++ var17 var18)))
(assert (= var18 (str.++ var19 var20)))
(assert (= var20 (str.++ var21 var22)))
(assert (= var22 (str.++ var23 var24)))
(assert (= var24 (str.++ var25 var26)))
(assert (= var26 (str.++ var27 var28)))
(assert (= var28 (str.++ var29 var30)))
(assert (= var30 (str.++ var31 var32)))
(assert (= var32 (str.++ var33 var34)))
(assert (= var34 (str.++ var35 var36)))
(assert (= var36 (str.++ var37 var38)))
(assert (= var38 (str.++ var39 var40)))
(assert (= var40 (str.++ var41 var42)))
(assert (= var42 (str.++ var43 var44)))
(assert (= var44 (str.++ var45 var46)))
(assert (= var46 (str.++ var47 var48)))
(assert (= var48 (str.++ var49 var50)))
(assert (= var50 (str.++ var51 var52)))
(assert (= var52 (str.++ var53 var54)))
(assert (= var54 (str.++ var55 var56)))
(assert (= var56 (str.++ var57 var58)))
(assert (= var58 (str.++ var59 var60)))
(assert (= var0 "solution"))
(assert (= "|" (str.at var18 768)))
(assert (= "W" (str.at var36 130)))
(assert (= "*" (str.at var48 414)))
(assert (= "?" (str.at var28 495)))
(assert (= "r" (str.at var26 314)))
(assert (= "1" (str.at var42 560)))
(assert (= "," (str.at var56 832)))
(assert (= "v" (str.at var46 110)))
(assert (= "d" (str.at var24 167)))
(assert (= "/" (str.at var33 344)))
(assert (= "?" (str.at var13 44)))
(assert (= "@" (str.at var41 704)))
(assert (= "o" (str.at var44 737)))
(assert (= "7" (str.at var49 300)))
(assert (= "f" (str.at var30 544)))
(assert (= ":" (str.at var29 724)))
(assert (= "'" (str.at var25 752)))
(assert (= "5" (str.at var21 478)))
(assert (= "C" (str.at var27 949)))
(assert (= "P" (str.at var21 828)))
(assert (= "n" (str.at var18 322)))
(assert (= "#" (str.at var3 149)))
(assert (= "4" (str.at var37 168)))
(assert (= "L" (str.at var7 805)))
(assert (= ";" (str.at var43 801)))
(assert (= "a" (str.at var24 28)))
(assert (= "d" (str.at var38 59)))
(assert (= "6" (str.at var4 681)))
(assert (= "B" (str.at var11 303)))
(assert (= "0" (str.at var20 268)))
(assert (= "0" (str.at var21 715)))
(assert (= "L" (str.at var46 218)))
(assert (= "]" (str.at var4 59)))
(assert (= ")" (str.at var45 670)))
(assert (= "P" (str.at var19 684)))
(assert (= ";" (str.at var30 218)))
(assert (= "K" (str.at var53 708)))
(assert (= "s" (str.at var53 508)))
(assert (= "D" (str.at var34 305)))
(assert (= "!" (str.at var3 382)))
(assert (= "=" (str.at var2 751)))
(assert (= "v" (str.at var53 473)))
(assert (= "N" (str.at var19 540)))
(assert (= "m" (str.at var26 741)))
(assert (= "c" (str.at var7 618)))
(assert (= "/" (str.at var26 357)))
(assert (= "." (str.at var51 845)))
(assert (= "V" (str.at var29 111)))
(assert (= "x" (str.at var32 919)))
(assert (= "Z" (str.at var22 992)))
(assert (= "'" (str.at var29 36)))
(assert (= ")" (str.at var32 640)))
(assert (= "0" (str.at var33 285)))
(assert (= "y" (str.at var56 94)))
(assert (= "Q" (str.at var23 436)))
(assert (= "L" (str.at var57 863)))
(assert (= "p" (str.at var19 978)))
(assert (= "=" (str.at var29 20)))
(assert (= "X" (str.at var22 924)))
(assert (= "F" (str.at var17 852)))
(assert (= "L" (str.at var14 666)))
(assert (= "x" (str.at var30 955)))
(assert (= ">" (str.at var20 407)))
(assert (= "v" (str.at var46 578)))
(assert (= "A" (str.at var47 705)))
(assert (= ")" (str.at var29 812)))
(assert (= "^" (str.at var54 67)))
(assert (= "-" (str.at var0 209)))
(assert (= "q" (str.at var1 997)))
(assert (= "d" (str.at var30 738)))
(assert (= "{" (str.at var46 107)))
(assert (= "8" (str.at var46 761)))
(assert (= "t" (str.at var18 307)))
(assert (= "K" (str.at var30 970)))
(assert (= "Y" (str.at var50 577)))
(assert (= "n" (str.at var19 498)))
(assert (= "t" (str.at var48 565)))
(assert (= "{" (str.at var54 515)))
(assert (= "l" (str.at var58 154)))
(assert (= "k" (str.at var27 553)))
(assert (= "0" (str.at var39 533)))
(assert (= "(" (str.at var59 145)))
(assert (= "H" (str.at var26 231)))
(assert (= "Y" (str.at var28 444)))
(assert (= "W" (str.at var47 824)))
(assert (= "<" (str.at var32 771)))
(assert (= "a" (str.at var44 642)))
(assert (= "M" (str.at var56 254)))
(assert (= "H" (str.at var51 459)))
(assert (= "C" (str.at var13 714)))
(assert (= "|" (str.at var46 633)))
(assert (= "J" (str.at var42 835)))
(assert (= "S" (str.at var42 906)))
(assert (= "F" (str.at var6 863)))
(assert (= "'" (str.at var22 185)))
(assert (= "/" (str.at var19 969)))
(assert (= "," (str.at var38 514)))
(assert (= "O" (str.at var16 794)))
(assert (= "4" (str.at var4 147)))
(assert (= "3" (str.at var4 115)))
(assert (= "@" (str.at var56 284)))
(assert (= "k" (str.at var13 869)))
(assert (= "3" (str.at var33 987)))
(assert (= "i" (str.at var24 4)))
(assert (= "@" (str.at var57 836)))
(assert (= "C" (str.at var2 882)))
(assert (= "(" (str.at var19 47)))
(assert (= "-" (str.at var58 939)))
(assert (= "q" (str.at var52 658)))
(assert (= "C" (str.at var53 257)))
(assert (= "[" (str.at var10 0)))
(assert (= "u" (str.at var5 709)))
(assert (= "-" (str.at var33 332)))
(assert (= "U" (str.at var27 88)))
(assert (= "J" (str.at var56 106)))
(assert (= "=" (str.at var48 408)))
(assert (= "6" (str.at var44 370)))
(assert (= "Q" (str.at var31 990)))
(assert (= "m" (str.at var25 694)))
(assert (= "+" (str.at var17 103)))
(assert (= "g" (str.at var39 542)))
(assert (= "p" (str.at var16 696)))
(assert (= "{" (str.at var17 585)))
(assert (= "{" (str.at var17 483)))
(assert (= "!" (str.at var43 911)))
(assert (= "|" (str.at var32 779)))
(assert (= "R" (str.at var20 892)))
(assert (= "A" (str.at var38 89)))
(assert (= "0" (str.at var39 736)))
(assert (= "6" (str.at var12 413)))
(assert (= "P" (str.at var17 149)))
(assert (= "x" (str.at var33 66)))
(assert (= "K" (str.at var15 353)))
(assert (= "a" (str.at var3 20)))
(assert (= "z" (str.at var17 573)))
(assert (= "i" (str.at var18 812)))
(assert (= "5" (str.at var7 818)))
(assert (= "X" (str.at var56 983)))
(assert (= "v" (str.at var14 575)))
(assert (= "J" (str.at var41 720)))
(assert (= "-" (str.at var59 434)))
(assert (= "}" (str.at var32 126)))
(assert (= "B" (str.at var52 847)))
(assert (= "`" (str.at var11 442)))
(assert (= "4" (str.at var57 596)))
(assert (= "?" (str.at var3 91)))
(assert (= "x" (str.at var6 927)))
(assert (= "^" (str.at var14 752)))
(assert (= "y" (str.at var40 540)))
(assert (= "3" (str.at var7 316)))
(assert (= "!" (str.at var7 842)))
(assert (= "a" (str.at var20 252)))
(assert (= "^" (str.at var14 43)))
(assert (= "]" (str.at var6 980)))
(assert (= "9" (str.at var57 224)))
(assert (= "x" (str.at var19 39)))
(assert (= "$" (str.at var48 726)))
(assert (= "h" (str.at var11 85)))
(assert (= "B" (str.at var14 119)))
(assert (= "I" (str.at var27 392)))
(assert (= "I" (str.at var44 809)))
(assert (= "C" (str.at var53 109)))
(assert (= "%" (str.at var7 629)))
(assert (= "f" (str.at var11 749)))
(assert (= "N" (str.at var40 649)))
(assert (= "*" (str.at var20 211)))
(assert (= "Y" (str.at var4 484)))
(assert (= "p" (str.at var0 519)))
(assert (= "8" (str.at var56 588)))
(assert (= "e" (str.at var12 855)))
(assert (= "L" (str.at var41 430)))
(assert (= "f" (str.at var23 729)))
(assert (= "t" (str.at var20 740)))
(assert (= "y" (str.at var34 400)))
(assert (= "1" (str.at var3 447)))
(assert (= "E" (str.at var56 181)))
(assert (= "b" (str.at var16 746)))
(assert (= ";" (str.at var54 226)))
(assert (= "F" (str.at var21 306)))
(assert (= "-" (str.at var39 492)))
(assert (= "P" (str.at var30 77)))
(assert (= "x" (str.at var28 598)))
(assert (= "/" (str.at var8 854)))
(assert (= "N" (str.at var47 118)))
(assert (= "i" (str.at var55 349)))
(assert (= "*" (str.at var11 932)))
(assert (= "W" (str.at var51 516)))
(assert (= "g" (str.at var19 872)))
(assert (= ")" (str.at var50 525)))
(assert (= "C" (str.at var48 336)))
(assert (= "(" (str.at var44 724)))
(assert (= "4" (str.at var7 766)))
(assert (= "<" (str.at var45 435)))
(assert (= "-" (str.at var37 114)))
(assert (= "X" (str.at var15 385)))
(assert (= "$" (str.at var26 559)))
(assert (= "y" (str.at var12 633)))
(assert (= """" (str.at var29 818)))
(assert (= "]" (str.at var24 826)))
(assert (= "W" (str.at var56 744)))
(assert (= "*" (str.at var55 948)))
(assert (= "^" (str.at var43 371)))
(assert (= "b" (str.at var1 429)))
(assert (= "+" (str.at var2 404)))
(assert (= "Z" (str.at var51 23)))
(assert (= "\\" (str.at var32 989)))
(assert (= "3" (str.at var56 287)))
(assert (= "$" (str.at var9 675)))
(assert (= "l" (str.at var1 889)))
(assert (= "4" (str.at var50 715)))
(assert (= "*" (str.at var26 969)))
(assert (= "&" (str.at var49 969)))
(assert (= "J" (str.at var43 656)))
(assert (= "0" (str.at var3 251)))
(assert (= "t" (str.at var38 618)))
(assert (= "O" (str.at var38 246)))
(assert (= "z" (str.at var20 418)))
(assert (= "G" (str.at var48 550)))
(assert (= "Y" (str.at var49 311)))
(assert (= "}" (str.at var24 575)))
(assert (= "N" (str.at var21 404)))
(assert (= "-" (str.at var41 38)))
(assert (= "u" (str.at var39 877)))
(assert (= "7" (str.at var19 286)))
(assert (= "k" (str.at var44 37)))
(assert (= "V" (str.at var48 390)))
(assert (= "G" (str.at var33 760)))
(assert (= "V" (str.at var53 671)))
(assert (= "p" (str.at var31 537)))
(assert (= "(" (str.at var11 78)))
(assert (= "." (str.at var36 633)))
(assert (= "\\" (str.at var43 27)))
(assert (= "~" (str.at var38 665)))
(assert (= "O" (str.at var41 828)))
(assert (= "}" (str.at var36 327)))
(assert (= "+" (str.at var5 737)))
(assert (= "p" (str.at var57 272)))
(assert (= "I" (str.at var26 341)))
(assert (= "}" (str.at var2 516)))
(assert (= "z" (str.at var41 33)))
(assert (= "v" (str.at var36 21)))
(assert (= "T" (str.at var59 613)))
(assert (= "k" (str.at var55 626)))
(assert (= "*" (str.at var36 942)))
(assert (= "*" (str.at var0 154)))
(assert (= "D" (str.at var19 231)))
(assert (= "r" (str.at var54 967)))
(assert (= ")" (str.at var29 351)))
(assert (= "3" (str.at var60 852)))
(assert (= "d" (str.at var53 89)))
(assert (= "2" (str.at var6 288)))
(assert (= "4" (str.at var30 380)))
(assert (= "u" (str.at var11 538)))
(assert (= "#" (str.at var36 58)))
(assert (= "T" (str.at var14 653)))
(assert (= "U" (str.at var7 103)))
(assert (= ":" (str.at var22 293)))
(assert (= "D" (str.at var12 671)))
(assert (= "/" (str.at var27 247)))
(assert (= "j" (str.at var49 71)))
(assert (= "(" (str.at var55 44)))
(assert (= "F" (str.at var58 187)))
(assert (= "z" (str.at var53 162)))
(assert (= "a" (str.at var0 669)))
(assert (= "<" (str.at var13 73)))
(assert (= "|" (str.at var41 778)))
(assert (= "o" (str.at var25 604)))
(assert (= "y" (str.at var5 510)))
(assert (= "4" (str.at var51 266)))
(assert (= "7" (str.at var52 288)))
(assert (= "B" (str.at var51 146)))
(assert (= "r" (str.at var9 445)))
(assert (= "y" (str.at var50 226)))
(assert (= "l" (str.at var12 934)))
(assert (= "{" (str.at var60 540)))
(assert (= "." (str.at var32 714)))
(assert (= "Y" (str.at var54 576)))
(assert (= "V" (str.at var49 385)))
(assert (= "`" (str.at var34 106)))
(assert (= "0" (str.at var43 154)))
(assert (= "2" (str.at var60 578)))
(assert (= "q" (str.at var42 169)))
(assert (= "j" (str.at var52 770)))
(assert (= "8" (str.at var29 426)))
(assert (= "8" (str.at var5 259)))
(assert (= """" (str.at var39 924)))
(assert (= "4" (str.at var15 880)))
(assert (= "U" (str.at var51 289)))
(assert (= "i" (str.at var34 490)))
(assert (= "#" (str.at var36 229)))
(assert (= "B" (str.at var46 504)))
(assert (= "o" (str.at var42 704)))
(assert (= "#" (str.at var46 308)))
(assert (= "=" (str.at var19 116)))
(assert (= ">" (str.at var2 414)))
(assert (= "Y" (str.at var27 653)))
(assert (= "F" (str.at var18 764)))
(assert (= "I" (str.at var41 31)))
(assert (= "r" (str.at var13 636)))
(assert (= "Q" (str.at var11 151)))
(assert (= "X" (str.at var43 87)))
(assert (= "J" (str.at var15 720)))
(assert (= "?" (str.at var38 879)))
(assert (= "2" (str.at var54 610)))
(assert (= "*" (str.at var9 654)))
(assert (= "4" (str.at var12 179)))
(assert (= "O" (str.at var7 985)))
(assert (= "*" (str.at var18 867)))
(assert (= "8" (str.at var25 687)))
(assert (= "T" (str.at var51 328)))
(assert (= "w" (str.at var54 785)))
(assert (= "b" (str.at var11 940)))
(assert (= "B" (str.at var47 278)))
(assert (= "b" (str.at var34 835)))
(assert (= "P" (str.at var39 276)))
(assert (= "o" (str.at var10 595)))
(assert (= "r" (str.at var29 428)))
(assert (= "R" (str.at var50 497)))
(assert (= "2" (str.at var23 4)))
(assert (= ":" (str.at var24 943)))
(assert (= "0" (str.at var56 415)))
(assert (= "m" (str.at var4 263)))
(assert (= "{" (str.at var31 216)))
(assert (= "1" (str.at var5 637)))
(assert (= "t" (str.at var50 396)))
(assert (= "~" (str.at var23 479)))
(assert (= "N" (str.at var19 715)))
(assert (= "'" (str.at var52 480)))
(assert (= "8" (str.at var15 618)))
(assert (= "`" (str.at var49 95)))
(assert (= "!" (str.at var47 35)))
(assert (= "P" (str.at var12 81)))
(assert (= "M" (str.at var10 227)))
(assert (= "D" (str.at var52 512)))
(assert (= "y" (str.at var35 422)))
(assert (= "@" (str.at var47 99)))
(assert (= "l" (str.at var48 45)))
(assert (= "C" (str.at var10 579)))
(assert (= "~" (str.at var36 461)))
(assert (= "]" (str.at var45 706)))
(assert (= "e" (str.at var23 414)))
(assert (= "3" (str.at var24 135)))
(assert (= "R" (str.at var5 659)))
(assert (= "=" (str.at var47 417)))
(assert (= "d" (str.at var41 492)))
(assert (= "|" (str.at var14 490)))
(assert (= "t" (str.at var31 212)))
(assert (= "y" (str.at var5 202)))
(assert (= "N" (str.at var4 34)))
(assert (= "f" (str.at var50 121)))
(assert (= ":" (str.at var33 64)))
(assert (= "j" (str.at var34 915)))
(assert (= "T" (str.at var46 741)))
(assert (= "%" (str.at var23 997)))
(assert (= "X" (str.at var36 293)))
(assert (= "n" (str.at var53 356)))
(assert (= """" (str.at var58 888)))
(assert (= "3" (str.at var34 260)))
(assert (= "Y" (str.at var37 851)))
(assert (= "J" (str.at var42 164)))
(assert (= "e" (str.at var1 75)))
(assert (= "v" (str.at var30 337)))
(assert (= "f" (str.at var49 438)))
(assert (= "Q" (str.at var45 67)))
(assert (= "n" (str.at var55 747)))
(assert (= "h" (str.at var46 191)))
(assert (= "w" (str.at var57 924)))
(assert (= "X" (str.at var5 698)))
(assert (= "&" (str.at var25 396)))
(assert (= "w" (str.at var37 952)))
(assert (= "K" (str.at var51 440)))
(assert (= "8" (str.at var26 783)))
(assert (= "f" (str.at var32 207)))
(assert (= "M" (str.at var6 569)))
(assert (= "X" (str.at var32 568)))
(assert (= "*" (str.at var59 109)))
(assert (= "S" (str.at var40 431)))
(assert (= "-" (str.at var49 927)))
(assert (= "$" (str.at var49 938)))
(assert (= "0" (str.at var22 917)))
(assert (= "`" (str.at var1 360)))
(assert (= "Q" (str.at var37 50)))
(assert (= "Z" (str.at var4 21)))
(assert (= "p" (str.at var59 583)))
(assert (= "@" (str.at var37 785)))
(assert (= "S" (str.at var15 165)))
(assert (= "z" (str.at var45 116)))
(assert (= "c" (str.at var56 399)))
(assert (= "W" (str.at var52 533)))
(assert (= "H" (str.at var37 684)))
(assert (= "@" (str.at var26 692)))
(assert (= "e" (str.at var45 376)))
(assert (= "W" (str.at var42 638)))
(assert (= "o" (str.at var57 951)))
(assert (= "m" (str.at var19 79)))
(assert (= "i" (str.at var57 919)))
(assert (= ":" (str.at var55 187)))
(assert (= "c" (str.at var35 525)))
(assert (= "7" (str.at var0 226)))
(assert (= "e" (str.at var6 485)))
(assert (= "~" (str.at var45 560)))
(assert (= "'" (str.at var34 793)))
(assert (= "8" (str.at var29 392)))
(assert (= "u" (str.at var49 444)))
(assert (= "L" (str.at var0 765)))
(assert (= "x" (str.at var16 276)))
(assert (= "}" (str.at var7 21)))
(assert (= "q" (str.at var24 181)))
(assert (= "S" (str.at var44 800)))
(assert (= "L" (str.at var58 730)))
(assert (= "]" (str.at var31 696)))
(assert (= "o" (str.at var14 199)))
(assert (= "o" (str.at var8 601)))
(assert (= "V" (str.at var35 970)))
(assert (= "E" (str.at var18 121)))
(assert (= "y" (str.at var5 404)))
(assert (= "V" (str.at var27 491)))
(assert (= "k" (str.at var50 309)))
(assert (= "F" (str.at var48 715)))
(assert (= ":" (str.at var59 852)))
(assert (= "*" (str.at var12 982)))
(assert (= "f" (str.at var49 878)))
(assert (= "4" (str.at var55 788)))
(assert (= "," (str.at var28 510)))
(assert (= "2" (str.at var42 687)))
(assert (= "}" (str.at var1 228)))
(assert (= "." (str.at var34 745)))
(assert (= "u" (str.at var47 962)))
(assert (= "f" (str.at var43 603)))
(assert (= "%" (str.at var13 851)))
(assert (= "I" (str.at var34 32)))
(assert (= "4" (str.at var22 272)))
(assert (= """" (str.at var49 877)))
(assert (= "2" (str.at var60 201)))
(assert (= "n" (str.at var55 431)))
(assert (= "f" (str.at var43 151)))
(assert (= "v" (str.at var13 358)))
(assert (= "v" (str.at var7 160)))
(assert (= "H" (str.at var55 742)))
(assert (= "<" (str.at var53 578)))
(assert (= "=" (str.at var28 940)))
(assert (= "X" (str.at var43 148)))
(assert (= "|" (str.at var17 425)))
(assert (= "w" (str.at var39 193)))
(assert (= "j" (str.at var3 830)))
(assert (= "u" (str.at var42 45)))
(assert (= "\\" (str.at var47 254)))
(assert (= "S" (str.at var8 547)))
(assert (= "f" (str.at var56 161)))
(assert (= "p" (str.at var35 82)))
(assert (= "(" (str.at var21 485)))
(assert (= "`" (str.at var60 790)))
(assert (= "," (str.at var39 352)))
(assert (= "U" (str.at var52 484)))
(assert (= "A" (str.at var38 642)))
(assert (= "O" (str.at var22 963)))
(assert (= "-" (str.at var10 761)))
(assert (= "d" (str.at var31 12)))
(assert (= "V" (str.at var5 540)))
(assert (= "}" (str.at var47 49)))
(assert (= "\\" (str.at var60 652)))
(assert (= "@" (str.at var8 138)))
(assert (= "G" (str.at var56 814)))
(assert (= "|" (str.at var17 209)))
(assert (= "~" (str.at var44 445)))
(assert (= "W" (str.at var2 800)))
(assert (= "_" (str.at var19 640)))
(assert (= "o" (str.at var59 821)))
(assert (= "(" (str.at var47 325)))
(assert (= "d" (str.at var11 152)))
(assert (= "X" (str.at var1 881)))
(assert (= "l" (str.at var52 425)))
(assert (= "," (str.at var57 852)))
(assert (= "3" (str.at var11 347)))
(assert (= "W" (str.at var42 127)))
(assert (= "N" (str.at var7 34)))
(assert (= "3" (str.at var47 184)))
(assert (= "\\" (str.at var3 304)))
(assert (= "U" (str.at var50 431)))
(assert (= "=" (str.at var47 749)))
(assert (= "s" (str.at var15 627)))
(assert (= "G" (str.at var57 195)))
(assert (= "\\" (str.at var58 841)))
(assert (= "{" (str.at var49 875)))
(assert (= "v" (str.at var31 660)))
(assert (= "x" (str.at var14 738)))
(assert (= "!" (str.at var19 501)))
(assert (= "+" (str.at var2 411)))
(assert (= "u" (str.at var50 960)))
(assert (= "C" (str.at var38 45)))
(assert (= "k" (str.at var23 84)))
(assert (= "9" (str.at var24 306)))
(assert (= "Y" (str.at var35 462)))
(assert (= "H" (str.at var40 588)))
(assert (= "|" (str.at var16 162)))
(assert (= """" (str.at var26 180)))
(assert (= "}" (str.at var7 932)))
(assert (= "s" (str.at var42 441)))
(assert (= "X" (str.at var26 315)))
(assert (= "O" (str.at var57 256)))
(assert (= "K" (str.at var50 553)))
(assert (= "B" (str.at var19 214)))
(assert (= "q" (str.at var4 6)))
(assert (= ":" (str.at var48 753)))
(assert (= "," (str.at var38 427)))
(assert (= "l" (str.at var35 96)))
(assert (= "m" (str.at var9 644)))
(assert (= "j" (str.at var35 324)))
(assert (= "," (str.at var49 497)))
(assert (= "d" (str.at var5 254)))
(assert (= "2" (str.at var49 472)))
(assert (= "^" (str.at var0 151)))
(assert (= "/" (str.at var31 780)))
(assert (= "l" (str.at var9 397)))
(assert (= "/" (str.at var47 827)))
(assert (= "Q" (str.at var10 941)))
(assert (= "3" (str.at var42 446)))
(assert (= "'" (str.at var47 148)))
(assert (= "U" (str.at var22 3)))
(assert (= "Z" (str.at var7 901)))
(assert (= "[" (str.at var54 968)))
(assert (= "c" (str.at var9 262)))
(assert (= "P" (str.at var17 34)))
(assert (= "k" (str.at var39 817)))
(assert (= "g" (str.at var49 652)))
(assert (= "j" (str.at var18 149)))
(assert (= "V" (str.at var42 377)))
(assert (= "e" (str.at var34 833)))
(assert (= "A" (str.at var48 628)))
(assert (= "2" (str.at var25 993)))
(assert (= "*" (str.at var58 701)))
(assert (= "\\" (str.at var28 399)))
(assert (= "N" (str.at var36 894)))
(assert (= "7" (str.at var15 63)))
(assert (= "I" (str.at var9 351)))
(assert (= "G" (str.at var25 923)))
(assert (= "," (str.at var27 240)))
(assert (= "_" (str.at var17 212)))
(assert (= "." (str.at var43 648)))
(assert (= "P" (str.at var28 506)))
(assert (= "Z" (str.at var29 656)))
(assert (= "H" (str.at var39 350)))
(assert (= "&" (str.at var32 525)))
(assert (= "2" (str.at var49 170)))
(assert (= ";" (str.at var47 136)))
(assert (= "g" (str.at var42 768)))
(assert (= "z" (str.at var2 946)))
(assert (= "H" (str.at var10 609)))
(assert (= "H" (str.at var39 458)))
(assert (= "A" (str.at var60 615)))
(assert (= "u" (str.at var22 262)))
(assert (= "7" (str.at var36 393)))
(assert (= "Z" (str.at var43 921)))
(assert (= "~" (str.at var37 207)))
(assert (= "k" (str.at var25 287)))
(assert (= "R" (str.at var28 756)))
(assert (= "X" (str.at var32 298)))
(assert (= "c" (str.at var52 383)))
(assert (= "s" (str.at var55 613)))
(assert (= "P" (str.at var8 494)))
(assert (= "6" (str.at var53 262)))
(assert (= "h" (str.at var34 274)))
(assert (= "8" (str.at var55 924)))
(assert (= "3" (str.at var26 396)))
(assert (= "$" (str.at var5 89)))
(assert (= "~" (str.at var56 570)))
(assert (= "B" (str.at var44 929)))
(assert (= "&" (str.at var44 914)))
(assert (= "'" (str.at var22 65)))
(assert (= ":" (str.at var18 595)))
(assert (= "E" (str.at var28 380)))
(assert (= ":" (str.at var35 760)))
(assert (= "H" (str.at var19 793)))
(assert (= "5" (str.at var30 434)))
(assert (= "S" (str.at var1 10)))
(assert (= "4" (str.at var32 651)))
(assert (= "r" (str.at var26 928)))
(assert (= "!" (str.at var21 878)))
(assert (= "=" (str.at var41 835)))
(assert (= "9" (str.at var43 284)))
(assert (= "-" (str.at var27 570)))
(assert (= "1" (str.at var12 65)))
(assert (= "s" (str.at var42 950)))
(assert (= "u" (str.at var38 784)))
(assert (= "_" (str.at var26 778)))
(assert (= "W" (str.at var28 35)))
(assert (= "Z" (str.at var57 712)))
(assert (= "=" (str.at var38 622)))
(assert (= "@" (str.at var23 849)))
(assert (= "G" (str.at var43 736)))
(assert (= "C" (str.at var38 221)))
(assert (= "g" (str.at var43 750)))
(assert (= "t" (str.at var56 88)))
(assert (= "i" (str.at var7 872)))
(assert (= "!" (str.at var39 494)))
(assert (= "[" (str.at var1 290)))
(assert (= "3" (str.at var34 910)))
(assert (= "T" (str.at var33 180)))
(assert (= "w" (str.at var6 838)))
(assert (= "8" (str.at var6 32)))
(assert (= "N" (str.at var11 545)))
(assert (= "I" (str.at var39 874)))
(assert (= "p" (str.at var12 864)))
(assert (= "9" (str.at var21 915)))
(assert (= """" (str.at var8 659)))
(assert (= ")" (str.at var46 951)))
(assert (= "E" (str.at var13 7)))
(assert (= "'" (str.at var50 971)))
(assert (= """" (str.at var29 166)))
(assert (= "R" (str.at var32 123)))
(assert (= "`" (str.at var28 195)))
(assert (= "h" (str.at var23 298)))
(assert (= "l" (str.at var58 302)))
(assert (= "@" (str.at var27 554)))
(assert (= "&" (str.at var1 298)))
(assert (= "V" (str.at var13 133)))
(assert (= "(" (str.at var39 364)))
(assert (= "R" (str.at var3 755)))
(assert (= "i" (str.at var5 462)))
(assert (= "." (str.at var48 423)))
(assert (= "Q" (str.at var16 127)))
(assert (= "/" (str.at var2 243)))
(assert (= "_" (str.at var5 672)))
(assert (= """" (str.at var48 721)))
(assert (= "V" (str.at var15 920)))
(assert (= "7" (str.at var10 40)))
(assert (= "`" (str.at var44 422)))
(assert (= "4" (str.at var29 434)))
(assert (= "h" (str.at var45 167)))
(assert (= "9" (str.at var41 917)))
(assert (= "2" (str.at var18 29)))
(assert (= "s" (str.at var6 741)))
(assert (= "k" (str.at var19 971)))
(assert (= "\\" (str.at var17 956)))
(assert (= "n" (str.at var52 47)))
(assert (= "&" (str.at var42 389)))
(assert (= "'" (str.at var7 257)))
(assert (= "y" (str.at var10 415)))
(assert (= "W" (str.at var56 731)))
(assert (= "K" (str.at var35 574)))
(assert (= "f" (str.at var16 727)))
(assert (= "~" (str.at var50 176)))
(assert (= "|" (str.at var22 313)))
(assert (= "7" (str.at var59 749)))
(assert (= "v" (str.at var22 741)))
(assert (= "U" (str.at var49 744)))
(assert (= "c" (str.at var19 584)))
(assert (= "]" (str.at var12 155)))
(assert (= "|" (str.at var33 941)))
(assert (= "k" (str.at var13 600)))
(assert (= "h" (str.at var4 346)))
(assert (= "<" (str.at var23 381)))
(assert (= "k" (str.at var37 918)))
(assert (= "#" (str.at var34 387)))
(assert (= "I" (str.at var2 891)))
(assert (= "y" (str.at var8 135)))
(assert (= "Y" (str.at var23 100)))
(assert (= "e" (str.at var48 75)))
(assert (= "V" (str.at var3 188)))
(assert (= "g" (str.at var34 738)))
(assert (= "H" (str.at var18 205)))
(assert (= "u" (str.at var22 910)))
(assert (= "o" (str.at var16 454)))
(assert (= "#" (str.at var17 123)))
(assert (= "0" (str.at var35 517)))
(assert (= "?" (str.at var10 485)))
(assert (= "s" (str.at var33 203)))
(assert (= "|" (str.at var8 461)))
(assert (= "s" (str.at var42 397)))
(assert (= "U" (str.at var56 578)))
(assert (= "/" (str.at var26 545)))
(assert (= "Y" (str.at var42 202)))
(assert (= "G" (str.at var21 432)))
(assert (= "&" (str.at var38 932)))
(assert (= "^" (str.at var32 110)))
(assert (= "^" (str.at var40 426)))
(assert (= "d" (str.at var38 168)))
(assert (= "Q" (str.at var46 278)))
(assert (= "w" (str.at var19 841)))
(assert (= "1" (str.at var36 901)))
(assert (= "1" (str.at var45 601)))
(check-sat)